
Welcome to IBM(R) ILOG(R) CPLEX(R) Interactive Optimizer 22.1.1.0
  with Simplex, Mixed Integer & Barrier Optimizers
5725-A06 5725-A29 5724-Y48 5724-Y49 5724-Y54 5724-Y55 5655-Y21
Copyright IBM Corp. 1988, 2022.  All Rights Reserved.

Type 'help' for a list of available commands.
Type 'help' followed by a command name for more
information on commands.

CPLEX> Selected objective sense:  MINIMIZE
Selected objective  name:  00000000
Selected RHS        name:  RHS1
Selected bound      name:  BOUND
Problem 'ee.mps' read.
Read time = 0.02 sec. (3.14 ticks)
CPLEX> New value for time limit in seconds: 7200
CPLEX> New value for parallel optimization mode: -1
CPLEX> New value for default parallel thread count: 40
CPLEX> New value for mixed integer optimality gap tolerance: 1e-13
CPLEX> Version identifier: 22.1.1.0 | 2022-11-28 | 9160aff4d
CPXPARAM_Threads                                 40
CPXPARAM_Parallel                                -1
CPXPARAM_TimeLimit                               7200
CPXPARAM_MIP_Tolerances_MIPGap                   1e-13
Found incumbent of value 0.000000 after 0.00 sec. (0.31 ticks)
Tried aggregator 2 times.
MIP Presolve eliminated 182 rows and 2745 columns.
MIP Presolve modified 5862 coefficients.
Aggregator did 713 substitutions.
Reduced MIP has 3623 rows, 7739 columns, and 28643 nonzeros.
Reduced MIP has 7739 binaries, 0 generals, 0 SOSs, and 0 indicators.
Presolve time = 0.07 sec. (68.57 ticks)
Probing time = 0.03 sec. (5.29 ticks)
Tried aggregator 1 time.
Detecting symmetries...
Reduced MIP has 3623 rows, 7739 columns, and 28643 nonzeros.
Reduced MIP has 7739 binaries, 0 generals, 0 SOSs, and 0 indicators.
Presolve time = 0.02 sec. (21.83 ticks)
Probing time = 0.02 sec. (5.09 ticks)
Clique table members: 18551.
MIP emphasis: balance optimality and feasibility.
MIP search method: dynamic search.
Parallel mode: opportunistic, using up to 40 threads.
Root relaxation solution time = 0.08 sec. (68.24 ticks)

        Nodes                                         Cuts/
   Node  Left     Objective  IInf  Best Integer    Best Bound    ItCnt     Gap

*     0+    0                            0.0000  -1.31000e+13              --- 
*     0+    0                      -6.49000e+12  -1.31000e+13           101.85%
*     0+    0                      -7.59000e+12  -1.31000e+13            72.60%
      0     0  -1.30900e+13    21  -7.59000e+12  -1.30900e+13     1976   72.46%
*     0+    0                      -1.30900e+13  -1.30900e+13             0.00%
      0     0  -1.30900e+13    52  -1.30900e+13      Cuts: 37     2129    0.00%
*     0+    0                      -1.30900e+13  -1.30900e+13             0.00%
      0     0  -1.30900e+13   102  -1.30900e+13      Cuts: 44     2547    0.00%
*     0+    0                      -1.30900e+13  -1.30900e+13             0.00%
*     0+    0                      -1.30900e+13  -1.30900e+13             0.00%

Repeating presolve.
Tried aggregator 2 times.
MIP Presolve eliminated 1666 rows and 4022 columns.
MIP Presolve modified 84 coefficients.
Aggregator did 392 substitutions.
Reduced MIP has 1565 rows, 3295 columns, and 11689 nonzeros.
Reduced MIP has 3295 binaries, 0 generals, 0 SOSs, and 0 indicators.
Presolve time = 0.04 sec. (40.93 ticks)
Probing time = 0.04 sec. (11.41 ticks)
Tried aggregator 1 time.
MIP Presolve eliminated 59 rows and 47 columns.
Reduced MIP has 1506 rows, 3240 columns, and 11536 nonzeros.
Reduced MIP has 3240 binaries, 0 generals, 0 SOSs, and 0 indicators.
Presolve time = 0.02 sec. (10.27 ticks)
Probing time = 0.03 sec. (10.70 ticks)
Tried aggregator 1 time.
Detecting symmetries...
MIP Presolve eliminated 6 rows and 6 columns.
Reduced MIP has 1500 rows, 3234 columns, and 11518 nonzeros.
Reduced MIP has 3234 binaries, 0 generals, 0 SOSs, and 0 indicators.
Presolve time = 0.01 sec. (12.72 ticks)
Represolve time = 0.16 sec. (103.73 ticks)
Probing time = 0.01 sec. (3.60 ticks)
Clique table members: 7657.
MIP emphasis: balance optimality and feasibility.
MIP search method: dynamic search.
Parallel mode: opportunistic, using up to 40 threads.
Root relaxation solution time = 0.04 sec. (17.05 ticks)

        Nodes                                         Cuts/
   Node  Left     Objective  IInf  Best Integer    Best Bound    ItCnt     Gap

*     0+    0                      -1.30900e+13  -1.30900e+13             0.00%
      0     0  -1.30900e+13    55  -1.30900e+13  -1.30900e+13     3277    0.00%
      0     0  -1.30900e+13    97  -1.30900e+13      Cuts: 63     3424    0.00%
      0     0  -1.30900e+13   110  -1.30900e+13      Cuts: 56     3580    0.00%
*     0+    0                      -1.30900e+13  -1.30900e+13             0.00%
      0     0  -1.00000e+75     0  -1.30900e+13  -1.30900e+13     3580    0.00%
      0     2  -1.30900e+13   110  -1.30900e+13  -1.30900e+13     3580    0.00%
Elapsed time = 1.46 sec. (845.73 ticks, tree = 0.02 MB, solutions = 8)
   2076    65  -1.30900e+13    14  -1.30900e+13  -1.30900e+13    77401    0.00%
   5204   356    infeasible        -1.30900e+13  -1.30900e+13   154336    0.00%
   7355   426  -1.30900e+13    54  -1.30900e+13  -1.30900e+13   256298    0.00%

GUB cover cuts applied:  1
Clique cuts applied:  24
Cover cuts applied:  355
Flow cuts applied:  3
Mixed integer rounding cuts applied:  4
Zero-half cuts applied:  9
Lift and project cuts applied:  7
Gomory fractional cuts applied:  24

Root node processing (before b&c):
  Real time             =    1.09 sec. (845.23 ticks)
Parallel b&c, 40 threads:
  Real time             =    1.78 sec. (875.65 ticks)
  Sync time (average)   =    0.54 sec.
  Wait time (average)   =    0.00 sec.
                          ------------
Total (root+branch&cut) =    2.87 sec. (1720.87 ticks)

Solution pool: 8 solutions saved.

MIP - Integer optimal solution:  Objective = -1.3089999991e+13
Solution time =    2.94 sec.  Iterations = 336602  Nodes = 7858
Deterministic time = 1720.91 ticks  (585.73 ticks/sec)

CPLEX> Solution 'p9' written to file 'ee.sol'.
CPLEX> 